$rem
   JOBTYPE 
   EXCHANGE HF
   BASIS cc-pVTZ
   GUI=2
$end
