$rem
   JOBTYPE SP
   EXCHANGE HF
   BASIS cc-pVTZ
   GUI=2
$end

$molecule
   1 2
   C 0.5625564505 -1.2630382788 -0.0000000000
   C -0.8125449922 -1.1187073105 -0.0000000000
   C 1.3751014434 -0.1443309749 0.0000000000
   C 0.8125449922 1.1187073105 -0.0000000000
   C -0.5625564505 1.2630382788 -0.0000000000
   C -1.3751014434 0.1443309749 -0.0000000000
   H 0.9992934054 -2.2435900151 0.0000000000
   H -1.4433589500 -1.9872086629 -0.0000000000
   H 2.4426526484 -0.2563813992 0.0000000000
   H 1.4433589500 1.9872086629 0.0000000000
   H -0.9992934054 2.2435900151 0.0000000000
   H -2.4426526484 0.2563813992 -0.0000000000
$end